Read MPS format model from file dat/rmp/DER_24_4096_41.mps
Reading time = 0.22 seconds
: 4120 rows, 24559 columns, 551621 nonzeros
Gurobi Optimizer version 9.0.0 build v9.0.0rc2 (linux64)
Optimize a model with 4120 rows, 24559 columns and 551621 nonzeros
Model fingerprint: 0xab2eb04e
Coefficient statistics:
  Matrix range     [2e-04, 1e+01]
  Objective range  [2e-01, 1e+03]
  Bounds range     [2e+04, 2e+04]
  RHS range        [1e+00, 1e+00]
Ordering time: 0.00s

Barrier statistics:
 AA' NZ     : 9.353e+04
 Factor NZ  : 1.317e+05 (roughly 13 MBytes of memory)
 Factor Ops : 4.587e+06 (less than 1 second per iteration)
 Threads    : 1

                  Objective                Residual
Iter       Primal          Dual         Primal    Dual     Compl     Time
   0   3.36046076e+08 -2.49890469e+07  6.58e+06 1.13e-02  2.69e+05     0s
   1   9.10672641e+06 -5.60933738e+06  1.69e+05 1.82e-12  7.12e+03     0s
   2   4.00836186e+05 -3.23978841e+06  6.94e+03 1.82e-12  4.13e+02     0s
   3   3.86954373e+04 -2.09896226e+06  5.66e+02 3.64e-12  1.03e+02     0s
   4   6.19618510e+03 -1.59685303e+05  2.86e-11 3.64e-12  6.75e+00     0s
   5   5.93349972e+03  3.36615790e+03  3.13e-11 3.64e-12  1.04e-01     0s
   6   5.86753285e+03  5.46176821e+03  2.54e-11 5.46e-12  1.65e-02     0s
   7   5.84155672e+03  5.68469482e+03  5.00e-11 3.64e-12  6.38e-03     0s
   8   5.83139782e+03  5.76038741e+03  3.92e-11 1.82e-12  2.89e-03     0s
   9   5.82562940e+03  5.77774639e+03  4.74e-11 1.82e-12  1.95e-03     0s
  10   5.81235235e+03  5.78479544e+03  4.31e-11 1.82e-12  1.12e-03     0s
  11   5.80428990e+03  5.79090065e+03  1.19e-10 1.82e-12  5.45e-04     0s
  12   5.79868186e+03  5.79618890e+03  1.41e-10 1.82e-12  1.01e-04     0s
  13   5.79754811e+03  5.79714248e+03  1.38e-10 3.64e-12  1.65e-05     1s
  14   5.79748518e+03  5.79718152e+03  3.11e-10 3.64e-12  1.24e-05     1s
  15   5.79742451e+03  5.79722701e+03  4.17e-10 1.82e-12  8.03e-06     1s
  16   5.79740153e+03  5.79725191e+03  3.85e-10 1.82e-12  6.09e-06     1s
  17   5.79737560e+03  5.79729477e+03  1.18e-09 1.82e-12  3.29e-06     1s
  18   5.79736808e+03  5.79731515e+03  8.94e-10 1.82e-12  2.15e-06     1s
  19   5.79736560e+03  5.79732424e+03  7.46e-10 1.82e-12  1.68e-06     1s
  20   5.79736326e+03  5.79732713e+03  6.49e-10 1.82e-12  1.47e-06     1s
  21   5.79735643e+03  5.79733161e+03  1.18e-09 1.82e-12  1.01e-06     1s
  22   5.79735427e+03  5.79733692e+03  1.51e-09 3.64e-12  7.06e-07     1s
  23   5.79734464e+03  5.79733953e+03  1.18e-08 1.82e-12  2.08e-07     1s
  24   5.79734419e+03  5.79734189e+03  8.44e-09 5.46e-12  9.35e-08     1s
  25   5.79734384e+03  5.79734193e+03  2.33e-08 5.46e-12  7.78e-08     1s
  26   5.79734381e+03  5.79734209e+03  2.25e-08 3.64e-12  6.96e-08     1s
  27   5.79734287e+03  5.79734224e+03  7.90e-07 1.82e-12  2.55e-08     1s
  28   5.79734252e+03  5.79734225e+03  2.97e-07 1.82e-12  1.12e-08     1s
  29   5.79734252e+03  5.79734228e+03  2.92e-07 1.82e-12  9.66e-09     1s
  30   5.79734251e+03  5.79734230e+03  2.88e-07 3.64e-12  8.76e-09     1s
  31   5.79734236e+03  5.79734232e+03  5.23e-06 1.82e-12  1.67e-09     1s
  32   5.79734233e+03  5.79734233e+03  5.44e-09 3.64e-12  3.86e-11     1s

Barrier solved model in 32 iterations and 0.95 seconds
Optimal objective 5.79734233e+03

Solve time: 0.953916144
Barrier iterations: 32
